(set-logic ALL)
(declare-fun i4 () Int)
(declare-fun i1 () Int)
(declare-fun i3 () Int)
(declare-fun it1167 () Int)
(declare-fun it1168 () Int)
(declare-fun i2 () Int)
(declare-fun it1169 () Int)
(declare-fun it1170 () Int)
(declare-fun it1171 () Int)
(declare-fun it1172 () Int)
(declare-fun it1556 () Int)
(declare-fun it1557 () Int)
(declare-fun it1558 () Int)
(declare-fun it1559 () Int)
(declare-fun it1560 () Int)
(declare-fun it1561 () Int)
(declare-fun it57 () Int)
(declare-fun it2513 () Int)
(declare-fun it2514 () Int)
(declare-fun it2515 () Int)
(declare-fun it2516 () Int)
(declare-fun it2517 () Int)
(declare-fun it2518 () Int)
(declare-fun it2523 () Int)
(declare-fun it2524 () Int)
(declare-fun it2525 () Int)
(declare-fun it2526 () Int)
(declare-fun it2527 () Int)
(declare-fun it2528 () Int)
(declare-fun it2570 () Int)
(declare-fun it2571 () Int)
(declare-fun it2572 () Int)
(declare-fun it2573 () Int)
(declare-fun it2574 () Int)
(declare-fun it2575 () Int)
(declare-fun it19 () Int)
(declare-fun it2603 () Int)
(declare-fun it2604 () Int)
(declare-fun it2605 () Int)
(declare-fun it2606 () Int)
(declare-fun it2607 () Int)
(declare-fun it2608 () Int)
(declare-fun it716 () Int)
(declare-fun it540 () Int)
(declare-fun it766 () Int)
(declare-fun it706 () Int)
(assert (and (>= (+ i3 (- 2)) 0) (= (+ i1 (- 1)) 0) (>= (+ i4 (- 2)) 0)))
(assert (= (+ it1167 (- 3)) 0))
(assert (= (+ (* i2 (- 1)) it1168 (- 2)) 0))
(assert (= (+ (* i3 (- 1)) it1169 1) 0))
(assert (= (+ (* i4 (- 1)) it1170) 0))
(assert (= (+ it1171 (* i3 (- 1)) 1) 0))
(assert (= (+ (* i3 (- 2)) it1172 2) 0))
(assert (and (>= (+ (* it1172 (- 1)) it1170) 0)
     (>= (+ it1169 (- 1)) 0)
     (>= (+ it1169 (- 2)) 0)
     (>= (+ (* it1170 (- 1)) 4) 0)
     (>= (+ it1172 (* it1170 (- 1))) 0)
     (>= (+ (* it1167 (- 1)) 3) 0)
     (>= (+ it1170 (- 2)) 0)
     (>= (+ it1167 (- 3)) 0)
     (>= 0 0)
     (<= (+ (* it1172 (- 1)) (* it1169 2) (- 2)) 0)))
(assert (= (+ it1556 (* it1167 (- 1))) 0))
(assert (= (+ (* it1168 (- 1)) it1557 (* it1169 (- 3)) 3) 0))
(assert (= (+ it1558 (- 1)) 0))
(assert (= (+ it1559 (* it1170 (- 1))) 0))
(assert (= (+ it1560 (- 1)) 0))
(assert (= (+ it1561 (- 2)) 0))
(assert (let ((a!1 (+ (+ 0 it1559)
              (* (exp 2 (+ it57 (- 1))) (+ 0 it1561) (+ 0 (- 1)))))
      (a!2 (>= (+ (+ it1559 (* it1561 (- 1))) (- 1)) 0)))
  (and (>= (+ it57 (- 1)) 0)
       (>= (+ a!1 (+ 0 (- 1))) (+ 0 0))
       (>= (+ it1561 (- 1)) 0)
       (>= (+ it1559 (* it1561 (- 1))) 0)
       (>= (+ (* it1556 (- 1)) 3) 0)
       a!2
       (>= (+ it1556 (- 3)) 0)
       (>= a!1 (+ 0 0)))))
(assert (= (+ (* it1556 (- 1)) it2513) 0))
(assert (= (+ (* it1557 (- 1)) it2514 (* it57 (- 1))) 0))
(assert (= (+ it2515 (* it1558 (- 1))) 0))
(assert (= (+ it2516 (* it1559 (- 1))) 0))
(assert (let ((a!1 (+ (+ 0 it2517)
              (* (exp 2 (+ it57 (- 1))) (+ 0 it1561) (+ 0 (- 1))))))
  (= a!1 (+ 0 0))))
(assert (= (+ (+ 0 it2518) (* (exp 2 it57) (+ 0 it1561) (+ 0 (- 1))))
   (+ 0 0)))
(assert (and (= (+ it2516 (* it2518 (- 1))) 0) (= (+ it2513 (- 3)) 0)))
(assert (= (+ it2523 (- 4)) 0))
(assert (= (+ (* it2514 (- 1)) it2524 (- 1)) 0))
(assert (= (+ (* it2515 (- 1)) it2525) 0))
(assert (= (+ (* it2516 (- 1)) it2526) 0))
(assert (= (+ (* it2517 (- 1)) it2527) 0))
(assert (= (+ (* it2518 (- 1)) it2528) 0))
(assert (and (>= (+ it2526 (- 2)) 0)
     (>= (+ it2526 (- 3)) 0)
     (= (+ it2523 (- 4)) 0)
     (= (+ it2525 (- 1)) 0)))
(assert (= (+ it2570 (- 3)) 0))
(assert (= (+ it2571 (* it2524 (- 1)) (- 2)) 0))
(assert (= (+ it2572 (* it2525 (- 1))) 0))
(assert (= (+ it2573 (* it2526 (- 1)) 1) 0))
(assert (= (+ it2574 (* it2525 (- 1))) 0))
(assert (= (+ it2575 (* it2525 (- 2))) 0))
(assert (let ((a!1 (>= (+ (+ it2573 (* it19 (- 1))) (* it2572 (- 2))) 0))
      (a!2 (+ (+ (+ it2573 (* it19 (- 1))) (* it2572 (- 2))) 1))
      (a!3 (>= (+ (+ it2573 (* it2575 (- 1))) (- 1)) 0))
      (a!4 (>= (+ (+ it2573 (* it19 (- 1))) (- 2)) 0)))
  (and (>= (+ it2573 (- 3)) 0)
       (>= (+ it2570 (- 3)) 0)
       (>= (+ it19 (- 1)) 0)
       (>= (+ it2572 (- 1)) 0)
       (>= (+ it2573 (- 2)) 0)
       a!1
       (>= (+ (* it2572 (- 1)) 1) 0)
       (>= a!2 0)
       a!3
       (>= (+ (* it2570 (- 1)) 3) 0)
       a!4
       (>= (+ it2573 (* it2575 (- 1))) 0))))
(assert (= (+ (* it2570 (- 1)) it2603) 0))
(assert (= (+ (* it19 (- 3)) (* it2571 (- 1)) it2604) 0))
(assert (= (+ it2605 (* it2572 (- 1))) 0))
(assert (= (+ (* it2573 (- 1)) it19 it2606) 0))
(assert (= (+ (* it2572 (- 1)) it2607) 0))
(assert (= (+ it2608 (* it2572 (- 2))) 0))
(assert (let ((a!1 (>= (+ (+ (* it2605 (- 2)) it2606) (- 2)) 0))
      (a!2 (+ (* it706 (+ it766 (- 1)) it716 (- 1)) (* it766 (- 1))))
      (a!4 (+ (* (+ it716 (- 1)) it540 (- 1))
              (* it706 (+ it766 (- 1)) it716 (- 1))
              (* it706 (+ it716 (- 1)) (- 1))))
      (a!7 (+ (* (+ it716 (- 1)) it540 (- 1)) (* it706 (+ it716 (- 1)) (- 1))))
      (a!9 (>= (+ (+ it2606 (* it540 (- 1))) (- 3)) 0))
      (a!10 (+ (* it706 (+ it766 (- 1)) it716 (- 1))
               (* it2605 (- 2))
               (* it766 (- 1))))
      (a!18 (+ (* (* it540 it716) (- 1)) it2606 (* (* it706 it716) (- 1))))
      (a!20 (>= (+ (+ (* it2608 (- 1)) it2606) (- 1)) 0))
      (a!22 (+ (+ (+ (* it2605 (- 2)) it2606) (* it540 (- 1))) (- 1)))
      (a!26 (+ (+ (+ (* it2605 (- 2)) it2606) (* it540 (- 1))) (- 2)))
      (a!27 (>= (+ (+ (* it2605 (- 2)) it2606) (- 1)) 0))
      (a!29 (>= (+ (+ it2606 (* it540 (- 1))) (- 2)) 0)))
(let ((a!3 (+ (+ a!2 it2606)
              (* it540 (- 1))
              (* (+ it766 (- 1)) it540 it716 (- 1))))
      (a!5 (+ (+ a!4 (* it2605 (- 2)) (* it766 (- 1))) it2606))
      (a!8 (+ (+ a!2 it2606) (* (+ it766 (- 1)) it540 it716 (- 1))))
      (a!11 (+ (+ a!10 it2606) (* (+ it766 (- 1)) it540 it716 (- 1))))
      (a!12 (>= (+ (+ (+ a!7 it2606) (* it540 (- 1))) (- 2)) 0))
      (a!14 (+ (+ (+ a!7 (* it2605 (- 2))) it2606) (* it540 (- 1))))
      (a!15 (>= (+ a!10
                   (* it706 (- 1))
                   it2606
                   (* it540 (- 1))
                   (* (+ it766 (- 1)) it540 it716 (- 1)))
                0))
      (a!16 (+ (+ (+ a!7 (* it2605 (- 2))) it2606) (- 2)))
      (a!17 (+ a!2
               (* (* it540 it716) (- 1))
               it2606
               (* (* it706 it716) (- 1))
               (* (+ it766 (- 1)) it540 it716 (- 1))))
      (a!19 (>= (+ (+ a!4 (* it766 (- 1)))
                   (* it706 (- 1))
                   it2606
                   (* it540 (- 1))
                   (* (+ it766 (- 1)) it540 it716 (- 1))
                   (- 1))
                0))
      (a!21 (+ (+ a!10 it2606)
               (* it540 (- 1))
               (* (+ it766 (- 1)) it540 it716 (- 1))))
      (a!23 (>= (+ (+ a!7 (* it2605 (- 2)))
                   (* it706 (- 1))
                   it2606
                   (* it540 (- 1))
                   (- 1))
                0))
      (a!24 (+ (+ (+ a!4 (* it766 (- 1))) it2606)
               (* it540 (- 1))
               (* (+ it766 (- 1)) it540 it716 (- 1))))
      (a!25 (>= (+ (+ a!4 (* it2605 (- 2)) (* it766 (- 1)))
                   (* it706 (- 1))
                   it2606
                   (* it540 (- 1))
                   (* (+ it766 (- 1)) it540 it716 (- 1)))
                0))
      (a!28 (>= (+ a!2
                   (* it706 (- 1))
                   it2606
                   (* it540 (- 1))
                   (* (+ it766 (- 1)) it540 it716 (- 1))
                   (- 1))
                0))
      (a!30 (>= (+ (+ (+ a!7 it2606) (* it540 (- 1))) (- 3)) 0))
      (a!31 (+ (+ (+ a!4 (* it766 (- 1))) it2606)
               (* (+ it766 (- 1)) it540 it716 (- 1))
               (- 2))))
(let ((a!6 (+ a!5 (* it540 (- 1)) (* (+ it766 (- 1)) it540 it716 (- 1))))
      (a!13 (>= (+ a!5 (* (+ it766 (- 1)) it540 it716 (- 1)) (- 1)) 0)))
  (and a!1
       (>= (+ a!3 (- 2)) 0)
       (>= a!6 0)
       (>= (+ a!7 (* it706 (- 1)) it2606 (* it540 (- 1)) (- 2)) 0)
       (>= (+ a!8 (- 2)) 0)
       (>= (+ it540 (- 1)) 0)
       (>= (+ (* it706 (- 1)) it2606 (* it540 (- 1)) (- 2)) 0)
       (>= (+ it766 (- 1)) 0)
       (>= (+ (* it2605 (- 2)) (* it706 (- 1)) it2606 (* it540 (- 1)) (- 1)) 0)
       (>= (+ (* it2603 (- 1)) 3) 0)
       a!9
       (>= a!11 0)
       a!12
       (>= (+ a!11 (- 1)) 0)
       (>= (+ a!3 (- 1)) 0)
       a!13
       (>= (+ a!14 (- 1)) 0)
       a!15
       (>= a!16 0)
       (= (+ it2605 (- 1)) 0)
       (>= (+ a!17 (- 2)) 0)
       (>= (+ it2603 (- 3)) 0)
       (>= (+ (* it2608 (- 1)) it2606) 0)
       (>= (+ a!18 (- 2)) 0)
       (>= (+ it706 (- 1)) 0)
       (>= (+ (+ a!7 it2606) (- 3)) 0)
       a!19
       a!20
       (= (+ (* it540 it716) (* it706 it716) 1) 0)
       (>= (+ it716 (- 1)) 0)
       (>= (+ a!21 (- 1)) 0)
       (>= (+ it2605 (- 1)) 0)
       (>= (+ a!14 (- 2)) 0)
       (>= (+ (* it2605 (- 1)) 1) 0)
       (>= a!22 0)
       a!23
       (>= (+ a!18 (- 3)) 0)
       (>= a!21 0)
       (>= (+ a!24 (- 1)) 0)
       a!25
       (>= a!26 0)
       (= (+ it2608 (* it2605 (- 2))) 0)
       (>= (+ a!24 (- 2)) 0)
       a!27
       a!28
       (= (+ (* it2603 (- 1)) 3) 0)
       (>= (+ a!8 (- 1)) 0)
       a!29
       (>= (+ a!6 (- 1)) 0)
       (>= (+ it2606 (- 3)) 0)
       (>= (+ it2606 (- 2)) 0)
       a!30
       (>= (+ a!17 (- 1)) 0)
       (>= a!31 0))))))
(check-sat)
